NAME : amz2855.144516_122016.tour
COMMENT : Cost = 144516_122016
COMMENT : Found by LKH-AMZ [Keld Helsgaun] Sun May 11 14:14:16 2025
COMMENT : TW viol.: 0 #: 0
TYPE : TOUR
DIMENSION : 119
TOUR_SECTION
63
117
109
105
78
51
102
96
53
111
44
18
20
41
84
65
17
3
119
97
79
104
113
12
91
34
19
70
50
69
90
1
27
60
40
37
115
45
9
48
85
108
94
8
4
71
55
10
118
95
106
22
107
101
114
15
58
76
16
83
66
93
110
23
59
57
67
39
103
112
72
56
13
100
86
99
43
26
74
24
33
116
89
75
31
92
38
64
32
77
82
80
47
7
11
87
68
29
46
25
42
73
81
98
28
36
5
54
14
88
49
52
21
2
62
61
30
6
35
-1
EOF
